p cnf 112 316
a 7 9 11 0
d 1 7 0
d 3 9 0
d 5 11 0
d 2 7 0
d 4 7 9 0
d 6 7 9 11 0
d 8 7 9 11 0
d 10 7 9 11 0
d 12 7 9 11 0
d 13 9 0
d 14 7 9 0
d 15 7 9 11 0
d 16 7 9 11 0
d 17 7 9 11 0
d 18 7 9 11 0
d 19 7 9 11 0
d 20 7 9 0
d 21 11 0
d 22 7 9 11 0
d 23 7 9 11 0
d 24 7 9 11 0
d 25 7 9 11 0
d 26 7 9 11 0
d 27 7 9 11 0
d 28 7 9 11 0
d 29 7 9 11 0
d 30 7 9 11 0
d 31 7 9 11 0
d 32 7 9 0
d 33 7 9 11 0
d 34 7 0
d 35 7 9 11 0
d 36 7 9 11 0
d 37 7 9 11 0
d 38 7 9 11 0
d 39 7 9 11 0
d 40 7 9 11 0
d 41 7 9 11 0
d 42 7 9 11 0
d 43 7 9 11 0
d 44 7 9 11 0
d 45 9 0
d 46 7 9 11 0
d 47 7 9 11 0
d 48 7 9 11 0
d 49 7 9 11 0
d 50 7 9 11 0
d 51 7 9 11 0
d 52 7 9 11 0
d 53 7 9 11 0
d 54 7 9 11 0
d 55 7 9 11 0
d 56 7 9 11 0
d 57 7 9 11 0
d 58 7 9 11 0
d 59 7 9 11 0
d 60 7 9 11 0
d 61 7 9 11 0
d 62 7 9 11 0
d 63 7 9 11 0
d 64 7 9 11 0
d 65 7 9 11 0
d 66 7 9 11 0
d 67 11 0
d 68 7 9 11 0
d 69 7 9 11 0
d 70 7 9 11 0
d 71 7 9 11 0
d 72 7 9 11 0
d 73 7 9 11 0
d 74 7 9 11 0
d 75 7 9 11 0
d 76 7 9 11 0
d 77 7 9 11 0
d 78 7 9 11 0
d 79 7 9 11 0
d 80 7 9 11 0
d 81 7 9 11 0
d 82 7 9 11 0
d 83 7 9 11 0
d 84 7 9 11 0
d 85 7 9 11 0
d 86 7 9 11 0
d 87 7 9 11 0
d 88 7 9 11 0
d 89 7 9 11 0
d 90 7 9 11 0
d 91 7 9 11 0
d 92 7 9 11 0
d 93 7 9 11 0
d 94 7 9 11 0
d 95 7 9 11 0
d 96 7 9 11 0
d 97 7 9 11 0
d 98 7 9 11 0
d 99 7 9 11 0
d 100 7 9 11 0
d 101 7 9 11 0
d 102 7 9 11 0
d 103 7 9 11 0
d 104 7 9 11 0
d 105 7 9 11 0
d 106 7 9 11 0
d 107 7 9 11 0
d 108 7 9 11 0
d 109 7 9 11 0
d 110 7 9 0
d 111 7 9 11 0
d 112 7 9 11 0
2 1 0
-2 -1 0
-4 2 0
-4 3 0
4 -2 -3 0
-6 4 0
-6 5 0
6 -4 -5 0
-8 6 0
-8 7 0
8 -6 -7 0
-10 8 0
-10 9 0
10 -8 -9 0
-12 10 0
-12 11 0
12 -10 -11 0
13 3 0
-13 -3 0
-14 2 0
-14 13 0
14 -2 -13 0
-15 14 0
-15 5 0
15 -14 -5 0
-16 15 0
-16 7 0
16 -15 -7 0
-17 16 0
-17 9 0
17 -16 -9 0
-18 17 0
-18 11 0
18 -17 -11 0
19 -12 0
19 -18 0
-19 12 18 0
-20 1 0
-20 13 0
20 -1 -13 0
21 5 0
-21 -5 0
-22 20 0
-22 21 0
22 -20 -21 0
-23 22 0
-23 7 0
23 -22 -7 0
-24 23 0
-24 9 0
24 -23 -9 0
-25 24 0
-25 11 0
25 -24 -11 0
26 -19 0
26 -25 0
-26 19 25 0
-27 14 0
-27 21 0
27 -14 -21 0
-28 27 0
-28 7 0
28 -27 -7 0
-29 28 0
-29 9 0
29 -28 -9 0
-30 29 0
-30 11 0
30 -29 -11 0
31 -26 0
31 -30 0
-31 26 30 0
-32 1 0
-32 3 0
32 -1 -3 0
-33 32 0
-33 5 0
33 -32 -5 0
34 7 0
-34 -7 0
-35 33 0
-35 34 0
35 -33 -34 0
-36 35 0
-36 9 0
36 -35 -9 0
-37 36 0
-37 11 0
37 -36 -11 0
38 -31 0
38 -37 0
-38 31 37 0
-39 20 0
-39 5 0
39 -20 -5 0
-40 39 0
-40 34 0
40 -39 -34 0
-41 40 0
-41 9 0
41 -40 -9 0
-42 41 0
-42 11 0
42 -41 -11 0
43 -38 0
43 -42 0
-43 38 42 0
-44 39 0
-44 7 0
44 -39 -7 0
45 9 0
-45 -9 0
-46 44 0
-46 45 0
46 -44 -45 0
-47 46 0
-47 11 0
47 -46 -11 0
48 -43 0
48 -47 0
-48 43 47 0
-49 32 0
-49 21 0
49 -32 -21 0
-50 49 0
-50 7 0
50 -49 -7 0
-51 50 0
-51 45 0
51 -50 -45 0
-52 51 0
-52 11 0
52 -51 -11 0
53 -48 0
53 -52 0
-53 48 52 0
-54 4 0
-54 21 0
54 -4 -21 0
-55 54 0
-55 7 0
55 -54 -7 0
-56 55 0
-56 45 0
56 -55 -45 0
-57 56 0
-57 11 0
57 -56 -11 0
58 -53 0
58 -57 0
-58 53 57 0
-59 35 0
-59 45 0
59 -35 -45 0
-60 59 0
-60 11 0
60 -59 -11 0
61 -58 0
61 -60 0
-61 58 60 0
-62 40 0
-62 45 0
62 -40 -45 0
-63 62 0
-63 11 0
63 -62 -11 0
64 -61 0
64 -63 0
-64 61 63 0
-65 33 0
-65 7 0
65 -33 -7 0
-66 65 0
-66 9 0
66 -65 -9 0
67 11 0
-67 -11 0
-68 66 0
-68 67 0
68 -66 -67 0
69 -64 0
69 -68 0
-69 64 68 0
-70 24 0
-70 67 0
70 -24 -67 0
71 -69 0
71 -70 0
-71 69 70 0
-72 29 0
-72 67 0
72 -29 -67 0
73 -71 0
73 -72 0
-73 71 72 0
-74 6 0
-74 34 0
74 -6 -34 0
-75 74 0
-75 9 0
75 -74 -9 0
-76 75 0
-76 67 0
76 -75 -67 0
77 -73 0
77 -76 0
-77 73 76 0
-78 41 0
-78 67 0
78 -41 -67 0
79 -77 0
79 -78 0
-79 77 78 0
-80 49 0
-80 34 0
80 -49 -34 0
-81 80 0
-81 9 0
81 -80 -9 0
-82 81 0
-82 67 0
82 -81 -67 0
83 -79 0
83 -82 0
-83 79 82 0
-84 54 0
-84 34 0
84 -54 -34 0
-85 84 0
-85 9 0
85 -84 -9 0
-86 85 0
-86 67 0
86 -85 -67 0
87 -83 0
87 -86 0
-87 83 86 0
-88 8 0
-88 45 0
88 -8 -45 0
-89 88 0
-89 67 0
89 -88 -67 0
90 -87 0
90 -89 0
-90 87 89 0
-91 46 0
-91 67 0
91 -46 -67 0
92 -90 0
92 -91 0
-92 90 91 0
-93 16 0
-93 45 0
93 -16 -45 0
-94 93 0
-94 67 0
94 -93 -67 0
95 -92 0
95 -94 0
-95 92 94 0
-96 51 0
-96 67 0
96 -51 -67 0
97 -95 0
97 -96 0
-97 95 96 0
-98 23 0
-98 45 0
98 -23 -45 0
-99 98 0
-99 67 0
99 -98 -67 0
100 -97 0
100 -99 0
-100 97 99 0
-101 74 0
-101 45 0
101 -74 -45 0
-102 101 0
-102 67 0
102 -101 -67 0
103 -100 0
103 -102 0
-103 100 102 0
-104 62 0
-104 67 0
104 -62 -67 0
105 -103 0
105 -104 0
-105 103 104 0
-106 22 0
-106 34 0
106 -22 -34 0
-107 106 0
-107 45 0
107 -106 -45 0
-108 107 0
-108 67 0
108 -107 -67 0
109 -105 0
109 -108 0
-109 105 108 0
110 -7 9 0
110 7 -9 0
-110 -7 -9 0
-110 7 9 0
111 -110 11 0
111 110 -11 0
-111 -110 -11 0
-111 110 11 0
112 -109 -111 0
112 109 111 0
-112 -109 111 0
-112 109 -111 0
112 0
